param sigma
: 1   2 :=
1 0.00001 0.99999
2 0.10000 0.90000
3 0.20000 0.80000
4 0.30000 0.70000
5 0.40000 0.60000
6 0.50000 0.50000
7 0.90000 0.10000
8 0.80000 0.20000
9 0.70000 0.30000
10 0.60000 0.40000
11 0.99999 0.00001
;

set S:=
1 2 3 4 5 6 7 8 9 10 11 12 13 14 15 16 17 18 19 20 21 22 23 24 25 26 27 28 29 30 31 32 33 34 35 36 37 38 39 40 41 42 43 44 45 46 47 48 49 50 51 52 53 54 55 56 57 58 59 60 61 62 63 64 65 66 67 68 69 70 71 72 73 74 75 76 77 78 79 80 81 82 83 84 85 86 87 88 89 90 91 92 93 94 95 96 97 98 99 100 101 102 103 104 105 106 107 108 109 110 111 112 113 114 115 116 117 118 119 120 121 122 123 124 125 126 127 128 129 130 131 132 133 134 135 136 137 138 139 140 ;

set C:=
1 2 3 4 5 6 7 8 9 10 11 12 13 14 15 16 17 18 19 20 ;

set A:=
1 2 3 4 5 6 7 8 9 10 11 12 13 14 15 16 17 18 19 20 21 22 23 24 25 26 27 28 29 30 31 32 33 34 35 36 37 38 39 40 ;

set T:=
1_1_2 1_3_4 1_5_6 1_7_8 1_9_10 
2_1_2 2_3_4 2_5_6 2_7_8 2_9_10 
;

set R:=
1 2 3 4 5 ;

set Ac[1]:=
1 2 ;
set Ac[2]:=
3 4 ;
set Ac[3]:=
5 6 ;
set Ac[4]:=
7 8 ;
set Ac[5]:=
9 10 ;
set Ac[6]:=
11 12 ;
set Ac[7]:=
13 14 ;
set Ac[8]:=
15 16 ;
set Ac[9]:=
17 18 ;
set Ac[10]:=
19 20 ;
set Ac[11]:=
21 22 ;
set Ac[12]:=
23 24 ;
set Ac[13]:=
25 26 ;
set Ac[14]:=
27 28 ;
set Ac[15]:=
29 30 ;
set Ac[16]:=
31 32 ;
set Ac[17]:=
33 34 ;
set Ac[18]:=
35 36 ;
set Ac[19]:=
37 38 ;
set Ac[20]:=
39 40 ;

set Cs[1]:=
11 3 19 8 14 13 ;
set Cs[2]:=
11 14 8 5 1 20 16 ;
set Cs[3]:=
10 9 17 13 14 1 16 ;
set Cs[4]:=
17 12 1 15 20 8 2 ;
set Cs[5]:=
6 9 4 7 8 10 ;
set Cs[6]:=
3 2 17 16 20 18 15 ;
set Cs[7]:=
5 13 6 16 3 ;
set Cs[8]:=
3 7 1 19 13 6 14 ;
set Cs[9]:=
12 4 20 3 15 ;
set Cs[10]:=
9 4 18 14 10 13 ;
set Cs[11]:=
1 14 16 9 18 2 ;
set Cs[12]:=
7 20 10 11 6 2 12 ;
set Cs[13]:=
20 3 4 7 5 ;
set Cs[14]:=
12 17 5 9 8 16 13 ;
set Cs[15]:=
16 10 15 14 17 11 ;
set Cs[16]:=
4 3 1 14 17 ;
set Cs[17]:=
19 7 2 13 10 15 14 ;
set Cs[18]:=
12 2 15 17 6 16 ;
set Cs[19]:=
11 8 3 7 13 9 ;
set Cs[20]:=
1 2 20 18 12 ;
set Cs[21]:=
19 12 15 8 2 9 ;
set Cs[22]:=
14 18 11 15 9 ;
set Cs[23]:=
13 7 3 19 5 16 4 ;
set Cs[24]:=
19 10 3 1 6 4 14 ;
set Cs[25]:=
4 5 10 16 9 13 7 ;
set Cs[26]:=
7 18 16 10 15 19 8 ;
set Cs[27]:=
10 18 13 11 1 3 ;
set Cs[28]:=
6 20 3 2 5 16 ;
set Cs[29]:=
3 5 9 7 2 17 14 ;
set Cs[30]:=
16 17 5 8 18 3 12 ;
set Cs[31]:=
17 16 8 7 3 5 ;
set Cs[32]:=
9 7 3 18 12 16 ;
set Cs[33]:=
18 20 7 8 3 13 ;
set Cs[34]:=
11 8 9 20 5 1 4 ;
set Cs[35]:=
3 12 20 9 6 16 18 ;
set Cs[36]:=
12 19 5 3 2 ;
set Cs[37]:=
2 16 20 4 1 5 ;
set Cs[38]:=
4 10 3 14 8 ;
set Cs[39]:=
16 10 7 15 5 ;
set Cs[40]:=
12 6 18 13 9 4 14 ;
set Cs[41]:=
11 20 16 10 9 ;
set Cs[42]:=
4 6 11 13 15 ;
set Cs[43]:=
3 5 7 12 17 14 ;
set Cs[44]:=
4 14 7 15 8 19 16 ;
set Cs[45]:=
8 7 20 3 19 ;
set Cs[46]:=
2 15 17 11 12 9 ;
set Cs[47]:=
16 12 15 19 9 17 ;
set Cs[48]:=
8 9 14 16 13 19 17 ;
set Cs[49]:=
14 11 20 3 9 16 ;
set Cs[50]:=
11 5 9 1 10 15 3 ;
set Cs[51]:=
16 14 6 2 18 12 ;
set Cs[52]:=
16 3 5 9 17 6 ;
set Cs[53]:=
5 1 15 8 20 16 ;
set Cs[54]:=
15 4 20 11 16 9 12 ;
set Cs[55]:=
9 3 8 18 2 6 4 ;
set Cs[56]:=
20 1 19 17 11 ;
set Cs[57]:=
19 6 11 3 14 18 ;
set Cs[58]:=
19 18 8 15 2 6 ;
set Cs[59]:=
7 6 8 14 3 18 15 ;
set Cs[60]:=
7 13 14 2 9 8 ;
set Cs[61]:=
9 10 18 16 14 ;
set Cs[62]:=
4 16 18 7 6 8 ;
set Cs[63]:=
3 14 6 8 13 ;
set Cs[64]:=
17 13 3 2 6 ;
set Cs[65]:=
15 18 11 17 16 12 20 ;
set Cs[66]:=
10 16 17 13 20 ;
set Cs[67]:=
20 2 4 19 7 ;
set Cs[68]:=
10 20 8 17 15 ;
set Cs[69]:=
16 3 6 4 5 9 ;
set Cs[70]:=
4 11 3 19 13 1 10 ;
set Cs[71]:=
13 9 11 12 19 ;
set Cs[72]:=
20 2 14 16 17 ;
set Cs[73]:=
9 13 15 16 12 8 11 ;
set Cs[74]:=
6 13 20 14 9 ;
set Cs[75]:=
6 3 17 1 14 9 2 ;
set Cs[76]:=
3 10 16 7 5 ;
set Cs[77]:=
15 2 6 16 12 13 ;
set Cs[78]:=
10 13 4 5 17 3 ;
set Cs[79]:=
13 1 2 18 19 ;
set Cs[80]:=
8 3 16 15 20 2 11 ;
set Cs[81]:=
16 13 2 14 1 5 18 ;
set Cs[82]:=
11 5 16 19 10 2 ;
set Cs[83]:=
14 13 3 9 5 12 8 ;
set Cs[84]:=
10 8 3 11 7 20 ;
set Cs[85]:=
7 1 13 10 9 ;
set Cs[86]:=
6 2 10 4 8 7 5 ;
set Cs[87]:=
4 6 3 13 19 ;
set Cs[88]:=
7 15 19 13 18 ;
set Cs[89]:=
13 9 19 16 8 5 14 ;
set Cs[90]:=
3 15 16 19 2 ;
set Cs[91]:=
5 11 3 19 17 ;
set Cs[92]:=
11 9 2 19 5 ;
set Cs[93]:=
16 6 19 20 3 2 ;
set Cs[94]:=
18 9 20 19 5 3 14 ;
set Cs[95]:=
4 15 10 9 20 17 ;
set Cs[96]:=
3 7 5 6 18 2 20 ;
set Cs[97]:=
15 6 12 10 9 7 4 ;
set Cs[98]:=
11 12 3 2 19 ;
set Cs[99]:=
9 15 6 18 16 ;
set Cs[100]:=
2 13 8 11 19 16 ;
set Cs[101]:=
7 18 16 12 19 10 11 ;
set Cs[102]:=
12 18 17 5 1 ;
set Cs[103]:=
20 11 3 12 9 18 ;
set Cs[104]:=
4 3 16 13 9 19 8 ;
set Cs[105]:=
5 7 16 3 17 ;
set Cs[106]:=
17 5 14 12 16 9 ;
set Cs[107]:=
1 19 9 16 8 14 ;
set Cs[108]:=
9 11 7 10 13 1 ;
set Cs[109]:=
1 20 15 18 12 ;
set Cs[110]:=
7 2 16 14 5 19 8 ;
set Cs[111]:=
3 20 6 8 12 1 7 ;
set Cs[112]:=
18 12 15 7 8 ;
set Cs[113]:=
10 6 20 12 15 ;
set Cs[114]:=
4 8 10 12 6 14 ;
set Cs[115]:=
5 3 15 16 7 ;
set Cs[116]:=
15 7 16 9 18 1 ;
set Cs[117]:=
19 8 6 18 13 20 15 ;
set Cs[118]:=
5 17 18 15 20 ;
set Cs[119]:=
11 9 12 17 2 ;
set Cs[120]:=
20 19 11 2 3 ;
set Cs[121]:=
6 17 12 1 16 ;
set Cs[122]:=
1 2 10 6 4 9 ;
set Cs[123]:=
20 17 2 1 10 19 14 ;
set Cs[124]:=
17 4 15 2 6 16 11 ;
set Cs[125]:=
9 14 20 7 19 13 ;
set Cs[126]:=
17 3 14 12 6 19 8 ;
set Cs[127]:=
7 4 18 2 8 3 13 ;
set Cs[128]:=
16 7 5 15 6 12 10 ;
set Cs[129]:=
9 18 16 11 12 15 ;
set Cs[130]:=
1 10 17 19 3 5 7 ;
set Cs[131]:=
3 13 17 20 15 14 1 ;
set Cs[132]:=
2 13 8 7 9 10 19 ;
set Cs[133]:=
12 2 9 13 1 5 8 ;
set Cs[134]:=
17 13 5 11 16 1 18 ;
set Cs[135]:=
15 20 6 10 18 5 ;
set Cs[136]:=
20 2 14 16 1 ;
set Cs[137]:=
6 8 1 20 3 ;
set Cs[138]:=
5 16 11 19 1 7 3 ;
set Cs[139]:=
3 8 9 5 19 10 16 ;
set Cs[140]:=
12 16 1 17 11 5 2 ;

set Ra[1]:=
1 2 3 4 5 ;
set Ra[2]:=
1 2 3 4 5 ;
set Ra[3]:=
1 2 3 4 5 ;
set Ra[4]:=
1 2 3 4 5 ;
set Ra[5]:=
1 2 3 4 5 ;
set Ra[6]:=
1 2 3 4 5 ;
set Ra[7]:=
1 2 3 4 5 ;
set Ra[8]:=
1 2 3 4 5 ;
set Ra[9]:=
1 2 3 4 5 ;
set Ra[10]:=
1 2 3 4 5 ;
set Ra[11]:=
1 2 3 4 5 ;
set Ra[12]:=
1 2 3 4 5 ;
set Ra[13]:=
1 2 3 4 5 ;
set Ra[14]:=
1 2 3 4 5 ;
set Ra[15]:=
1 2 3 4 5 ;
set Ra[16]:=
1 2 3 4 5 ;
set Ra[17]:=
1 2 3 4 5 ;
set Ra[18]:=
1 2 3 4 5 ;
set Ra[19]:=
1 2 3 4 5 ;
set Ra[20]:=
1 2 3 4 5 ;
set Ra[21]:=
1 2 3 4 5 ;
set Ra[22]:=
1 2 3 4 5 ;
set Ra[23]:=
1 2 3 4 5 ;
set Ra[24]:=
1 2 3 4 5 ;
set Ra[25]:=
1 2 3 4 5 ;
set Ra[26]:=
1 2 3 4 5 ;
set Ra[27]:=
1 2 3 4 5 ;
set Ra[28]:=
1 2 3 4 5 ;
set Ra[29]:=
1 2 3 4 5 ;
set Ra[30]:=
1 2 3 4 5 ;
set Ra[31]:=
1 2 3 4 5 ;
set Ra[32]:=
1 2 3 4 5 ;
set Ra[33]:=
1 2 3 4 5 ;
set Ra[34]:=
1 2 3 4 5 ;
set Ra[35]:=
1 2 3 4 5 ;
set Ra[36]:=
1 2 3 4 5 ;
set Ra[37]:=
1 2 3 4 5 ;
set Ra[38]:=
1 2 3 4 5 ;
set Ra[39]:=
1 2 3 4 5 ;
set Ra[40]:=
1 2 3 4 5 ;

set Ts[1]:=
2_9_10 2_1_2 ;
set Ts[2]:=
2_3_4 1_7_8 2_5_6 1_5_6 ;
set Ts[3]:=
1_7_8 1_1_2 ;
set Ts[4]:=
1_7_8 1_3_4 ;
set Ts[5]:=
1_1_2 1_3_4 2_3_4 1_7_8 ;
set Ts[6]:=
2_3_4 2_9_10 1_3_4 ;
set Ts[7]:=
1_1_2 2_3_4 2_7_8 ;
set Ts[8]:=
2_3_4 1_3_4 1_5_6 ;
set Ts[9]:=
1_7_8 2_3_4 ;
set Ts[10]:=
1_5_6 1_7_8 ;
set Ts[11]:=
1_3_4 2_3_4 ;
set Ts[12]:=
1_1_2 1_3_4 ;
set Ts[13]:=
1_3_4 2_7_8 2_5_6 ;
set Ts[14]:=
2_1_2 1_1_2 2_9_10 ;
set Ts[15]:=
2_3_4 2_5_6 ;
set Ts[16]:=
2_7_8 1_3_4 1_1_2 ;
set Ts[17]:=
1_7_8 2_5_6 1_9_10 2_7_8 ;
set Ts[18]:=
1_3_4 1_1_2 ;
set Ts[19]:=
1_3_4 1_9_10 1_5_6 2_5_6 ;
set Ts[20]:=
2_5_6 1_1_2 ;
set Ts[21]:=
2_1_2 1_5_6 1_7_8 2_9_10 ;
set Ts[22]:=
2_9_10 2_7_8 ;
set Ts[23]:=
2_9_10 1_7_8 2_3_4 ;
set Ts[24]:=
2_3_4 2_1_2 1_5_6 ;
set Ts[25]:=
1_9_10 1_5_6 1_7_8 2_9_10 ;
set Ts[26]:=
2_7_8 2_9_10 ;
set Ts[27]:=
2_1_2 1_7_8 ;
set Ts[28]:=
1_3_4 2_7_8 2_1_2 1_1_2 ;
set Ts[29]:=
2_9_10 2_3_4 1_3_4 1_7_8 ;
set Ts[30]:=
2_7_8 1_1_2 1_3_4 2_9_10 ;
set Ts[31]:=
2_5_6 2_3_4 ;
set Ts[32]:=
2_5_6 2_7_8 1_9_10 2_9_10 ;
set Ts[33]:=
2_9_10 2_7_8 2_3_4 ;
set Ts[34]:=
1_7_8 2_9_10 ;
set Ts[35]:=
2_9_10 1_7_8 ;
set Ts[36]:=
2_7_8 2_3_4 ;
set Ts[37]:=
2_3_4 2_5_6 1_5_6 ;
set Ts[38]:=
1_5_6 1_3_4 2_5_6 1_7_8 ;
set Ts[39]:=
1_9_10 1_7_8 2_1_2 ;
set Ts[40]:=
2_1_2 2_7_8 1_5_6 2_5_6 ;
set Ts[41]:=
1_5_6 1_9_10 1_7_8 ;
set Ts[42]:=
1_5_6 1_1_2 ;
set Ts[43]:=
2_1_2 1_3_4 1_5_6 1_1_2 ;
set Ts[44]:=
1_9_10 1_1_2 2_5_6 ;
set Ts[45]:=
1_1_2 2_7_8 ;
set Ts[46]:=
1_3_4 1_7_8 2_9_10 ;
set Ts[47]:=
2_3_4 1_1_2 1_7_8 1_3_4 ;
set Ts[48]:=
1_3_4 2_5_6 ;
set Ts[49]:=
2_3_4 1_3_4 ;
set Ts[50]:=
2_1_2 1_3_4 1_1_2 2_3_4 ;
set Ts[51]:=
2_5_6 1_3_4 ;
set Ts[52]:=
1_7_8 2_1_2 1_5_6 ;
set Ts[53]:=
1_3_4 2_3_4 2_7_8 ;
set Ts[54]:=
1_5_6 1_1_2 ;
set Ts[55]:=
2_5_6 1_9_10 2_3_4 2_7_8 ;
set Ts[56]:=
2_5_6 1_5_6 1_1_2 ;
set Ts[57]:=
2_3_4 1_5_6 ;
set Ts[58]:=
2_7_8 2_3_4 1_3_4 ;
set Ts[59]:=
2_9_10 1_3_4 ;
set Ts[60]:=
2_9_10 2_3_4 1_5_6 ;
set Ts[61]:=
2_9_10 2_1_2 2_3_4 ;
set Ts[62]:=
2_3_4 1_1_2 2_1_2 ;
set Ts[63]:=
2_3_4 2_1_2 ;
set Ts[64]:=
2_7_8 1_9_10 2_5_6 ;
set Ts[65]:=
1_1_2 1_5_6 2_1_2 2_5_6 ;
set Ts[66]:=
1_5_6 1_7_8 1_1_2 1_3_4 ;
set Ts[67]:=
1_3_4 1_9_10 1_7_8 ;
set Ts[68]:=
1_5_6 1_1_2 2_3_4 2_7_8 ;
set Ts[69]:=
2_1_2 1_9_10 1_5_6 2_3_4 ;
set Ts[70]:=
1_1_2 2_7_8 2_5_6 ;
set Ts[71]:=
2_1_2 1_7_8 ;
set Ts[72]:=
1_9_10 1_1_2 ;
set Ts[73]:=
2_7_8 2_9_10 2_5_6 ;
set Ts[74]:=
1_3_4 1_7_8 1_1_2 ;
set Ts[75]:=
1_9_10 2_7_8 1_1_2 2_3_4 ;
set Ts[76]:=
1_5_6 1_1_2 2_3_4 ;
set Ts[77]:=
1_3_4 2_5_6 2_3_4 2_7_8 ;
set Ts[78]:=
2_3_4 1_5_6 1_9_10 2_5_6 ;
set Ts[79]:=
2_9_10 2_5_6 1_1_2 ;
set Ts[80]:=
1_5_6 1_7_8 2_9_10 ;
set Ts[81]:=
1_7_8 2_1_2 2_7_8 ;
set Ts[82]:=
1_1_2 1_5_6 1_3_4 ;
set Ts[83]:=
1_3_4 1_1_2 2_7_8 2_5_6 ;
set Ts[84]:=
2_1_2 2_5_6 2_9_10 ;
set Ts[85]:=
2_5_6 1_1_2 1_3_4 ;
set Ts[86]:=
1_5_6 2_5_6 ;
set Ts[87]:=
2_9_10 1_5_6 1_9_10 ;
set Ts[88]:=
2_7_8 2_3_4 1_5_6 2_9_10 ;
set Ts[89]:=
1_7_8 2_9_10 1_9_10 2_5_6 ;
set Ts[90]:=
1_9_10 2_1_2 1_3_4 ;
set Ts[91]:=
1_1_2 1_7_8 2_7_8 1_9_10 ;
set Ts[92]:=
1_3_4 2_7_8 ;
set Ts[93]:=
1_5_6 2_5_6 1_7_8 2_1_2 ;
set Ts[94]:=
1_5_6 2_5_6 2_3_4 2_7_8 ;
set Ts[95]:=
2_7_8 1_9_10 1_7_8 ;
set Ts[96]:=
2_1_2 1_7_8 1_1_2 1_3_4 ;
set Ts[97]:=
2_3_4 1_9_10 ;
set Ts[98]:=
1_7_8 1_5_6 ;
set Ts[99]:=
2_7_8 1_1_2 2_1_2 2_5_6 ;
set Ts[100]:=
2_9_10 1_3_4 1_9_10 2_1_2 ;
set Ts[101]:=
2_7_8 1_7_8 ;
set Ts[102]:=
2_7_8 2_1_2 1_9_10 ;
set Ts[103]:=
1_7_8 1_3_4 1_9_10 ;
set Ts[104]:=
1_5_6 1_3_4 2_9_10 1_9_10 ;
set Ts[105]:=
1_5_6 1_9_10 1_1_2 2_5_6 ;
set Ts[106]:=
2_9_10 1_3_4 2_3_4 2_5_6 ;
set Ts[107]:=
2_3_4 2_1_2 2_7_8 ;
set Ts[108]:=
1_9_10 2_3_4 1_1_2 ;
set Ts[109]:=
2_7_8 1_1_2 1_3_4 2_1_2 ;
set Ts[110]:=
2_3_4 2_7_8 2_1_2 2_5_6 ;
set Ts[111]:=
1_5_6 2_7_8 1_7_8 2_3_4 ;
set Ts[112]:=
2_5_6 1_3_4 1_5_6 2_3_4 ;
set Ts[113]:=
1_9_10 1_7_8 2_1_2 ;
set Ts[114]:=
1_1_2 2_3_4 ;
set Ts[115]:=
1_3_4 1_5_6 2_5_6 2_1_2 ;
set Ts[116]:=
1_3_4 2_9_10 1_7_8 2_1_2 ;
set Ts[117]:=
2_3_4 2_5_6 2_9_10 ;
set Ts[118]:=
2_5_6 1_9_10 2_7_8 1_1_2 ;
set Ts[119]:=
1_5_6 2_3_4 ;
set Ts[120]:=
1_1_2 2_7_8 2_3_4 ;
set Ts[121]:=
1_9_10 1_5_6 ;
set Ts[122]:=
1_3_4 2_1_2 1_9_10 ;
set Ts[123]:=
2_5_6 1_1_2 1_5_6 ;
set Ts[124]:=
2_9_10 1_7_8 2_3_4 1_3_4 ;
set Ts[125]:=
2_5_6 2_9_10 1_7_8 ;
set Ts[126]:=
2_9_10 2_7_8 1_5_6 ;
set Ts[127]:=
2_5_6 2_7_8 1_9_10 ;
set Ts[128]:=
1_9_10 2_1_2 2_5_6 ;
set Ts[129]:=
2_1_2 1_3_4 2_7_8 2_9_10 ;
set Ts[130]:=
1_9_10 1_7_8 2_9_10 ;
set Ts[131]:=
2_3_4 1_7_8 2_9_10 ;
set Ts[132]:=
2_5_6 2_3_4 ;
set Ts[133]:=
1_5_6 2_3_4 1_9_10 ;
set Ts[134]:=
1_1_2 2_5_6 1_3_4 1_9_10 ;
set Ts[135]:=
1_5_6 1_9_10 ;
set Ts[136]:=
1_9_10 2_5_6 2_7_8 1_3_4 ;
set Ts[137]:=
1_9_10 2_5_6 ;
set Ts[138]:=
1_1_2 1_3_4 1_7_8 ;
set Ts[139]:=
2_9_10 1_3_4 2_5_6 1_5_6 ;
set Ts[140]:=
2_1_2 2_5_6 ;

param rho:=
1 140
2 140
3 140
4 140
5 140
;

param sigma_class:=
1 140
2 140
3 140
4 140
5 140
6 140
7 140
8 140
9 140
10 140
11 140
12 140
13 140
14 140
15 140
16 140
17 140
18 140
19 140
20 140
;

param kmin:=
1 3
2 3
3 3
4 3
5 3
6 3
7 2
8 3
9 2
10 3
11 3
12 3
13 2
14 3
15 3
16 2
17 3
18 3
19 3
20 2
21 3
22 2
23 3
24 3
25 3
26 3
27 3
28 3
29 3
30 3
31 3
32 3
33 3
34 3
35 3
36 2
37 3
38 2
39 2
40 3
41 2
42 2
43 3
44 3
45 2
46 3
47 3
48 3
49 3
50 3
51 3
52 3
53 3
54 3
55 3
56 2
57 3
58 3
59 3
60 3
61 2
62 3
63 2
64 2
65 3
66 2
67 2
68 2
69 3
70 3
71 2
72 2
73 3
74 2
75 3
76 2
77 3
78 3
79 2
80 3
81 3
82 3
83 3
84 3
85 2
86 3
87 2
88 2
89 3
90 2
91 2
92 2
93 3
94 3
95 3
96 3
97 3
98 2
99 2
100 3
101 3
102 2
103 3
104 3
105 2
106 3
107 3
108 3
109 2
110 3
111 3
112 2
113 2
114 3
115 2
116 3
117 3
118 2
119 2
120 2
121 2
122 3
123 3
124 3
125 3
126 3
127 3
128 3
129 3
130 3
131 3
132 3
133 3
134 3
135 3
136 2
137 2
138 3
139 3
140 3
;

param kmax:=
1 6
2 7
3 7
4 7
5 6
6 7
7 5
8 7
9 5
10 6
11 6
12 7
13 5
14 7
15 6
16 5
17 7
18 6
19 6
20 5
21 6
22 5
23 7
24 7
25 7
26 7
27 6
28 6
29 7
30 7
31 6
32 6
33 6
34 7
35 7
36 5
37 6
38 5
39 5
40 7
41 5
42 5
43 6
44 7
45 5
46 6
47 6
48 7
49 6
50 7
51 6
52 6
53 6
54 7
55 7
56 5
57 6
58 6
59 7
60 6
61 5
62 6
63 5
64 5
65 7
66 5
67 5
68 5
69 6
70 7
71 5
72 5
73 7
74 5
75 7
76 5
77 6
78 6
79 5
80 7
81 7
82 6
83 7
84 6
85 5
86 7
87 5
88 5
89 7
90 5
91 5
92 5
93 6
94 7
95 6
96 7
97 7
98 5
99 5
100 6
101 7
102 5
103 6
104 7
105 5
106 6
107 6
108 6
109 5
110 7
111 7
112 5
113 5
114 6
115 5
116 6
117 7
118 5
119 5
120 5
121 5
122 6
123 7
124 7
125 6
126 7
127 7
128 7
129 6
130 7
131 7
132 7
133 7
134 7
135 6
136 5
137 5
138 7
139 7
140 7
;

